NAME: random_50_2
TYPE: TSP
COMMENT: random_50_2
DIMENSION: 50
EDGE_WEIGHT_TYPE: EUC_2D
NODE_COORD_SECTION
1 304 242
2 39 162
3 21 234
4 494 189
5 60 336
6 276 226
7 452 78
8 233 228
9 360 446
10 102 263
11 306 226
12 231 350
13 367 344
14 42 83
15 388 242
16 27 128
17 285 360
18 144 43
19 145 282
20 135 208
21 15 159
22 114 84
23 484 187
24 149 159
25 85 334
26 65 414
27 343 294
28 198 226
29 450 188
30 178 461
31 161 119
32 382 217
33 307 267
34 461 200
35 493 135
36 169 319
37 59 131
38 218 183
39 180 400
40 265 233
41 477 30
42 259 169
43 155 367
44 79 479
45 197 111
46 174 389
47 27 56
48 493 452
49 381 135
50 184 341
